p cnf 1350 3109
1 0
2 0
3 0
4 0
5 0
6 0
7 0
8 0
9 0
10 0
-11 0
-12 0
-13 0
-14 0
-15 0
-16 0
-17 0
-18 0
-19 0
-20 0
21 22 0
23 22 0
-21 -23 -22 0
-1 22 -24 0
1 -22 -24 0
24 -22 -1 0
1 22 24 0
-24 0
25 26 0
27 26 0
-25 -27 -26 0
-23 26 -28 0
23 -26 -28 0
28 -26 -23 0
23 26 28 0
-28 0
29 30 0
31 30 0
-29 -31 -30 0
-27 30 -32 0
27 -30 -32 0
32 -30 -27 0
27 30 32 0
-32 0
33 34 0
35 34 0
-33 -35 -34 0
-31 34 -36 0
31 -34 -36 0
36 -34 -31 0
31 34 36 0
-36 0
37 38 0
39 38 0
-37 -39 -38 0
-35 38 -40 0
35 -38 -40 0
40 -38 -35 0
35 38 40 0
-40 0
41 42 0
43 42 0
-41 -43 -42 0
-39 42 -44 0
39 -42 -44 0
44 -42 -39 0
39 42 44 0
-44 0
29 45 0
33 45 0
37 45 0
41 45 0
46 45 0
-47 0
-43 45 -48 0
43 -45 -48 0
48 -45 -43 0
43 45 48 0
-48 0
49 50 0
51 50 0
-49 -51 -50 0
-2 50 -52 0
2 -50 -52 0
52 -50 -2 0
2 50 52 0
-52 0
53 54 0
55 54 0
-53 -55 -54 0
-51 54 -56 0
51 -54 -56 0
56 -54 -51 0
51 54 56 0
-56 0
57 58 0
59 58 0
-57 -59 -58 0
-55 58 -60 0
55 -58 -60 0
60 -58 -55 0
55 58 60 0
-60 0
61 62 0
63 62 0
-61 -63 -62 0
-59 62 -64 0
59 -62 -64 0
64 -62 -59 0
59 62 64 0
-64 0
65 66 0
67 66 0
-65 -67 -66 0
-63 66 -68 0
63 -66 -68 0
68 -66 -63 0
63 66 68 0
-68 0
69 70 0
71 70 0
-69 -71 -70 0
-67 70 -72 0
67 -70 -72 0
72 -70 -67 0
67 70 72 0
-72 0
73 74 0
75 74 0
-73 -75 -74 0
-71 74 -76 0
71 -74 -76 0
76 -74 -71 0
71 74 76 0
-76 0
77 78 0
79 78 0
-77 -79 -78 0
-75 78 -80 0
75 -78 -80 0
80 -78 -75 0
75 78 80 0
-80 0
81 82 0
83 82 0
-81 -83 -82 0
-79 82 -84 0
79 -82 -84 0
84 -82 -79 0
79 82 84 0
-84 0
85 86 0
87 86 0
-85 -87 -86 0
-83 86 -88 0
83 -86 -88 0
88 -86 -83 0
83 86 88 0
-88 0
69 89 0
73 89 0
77 89 0
81 89 0
85 89 0
90 89 0
-91 0
-87 89 -92 0
87 -89 -92 0
92 -89 -87 0
87 89 92 0
-92 0
93 94 0
95 94 0
-93 -95 -94 0
-3 94 -96 0
3 -94 -96 0
96 -94 -3 0
3 94 96 0
-96 0
97 98 0
99 98 0
-97 -99 -98 0
-95 98 -100 0
95 -98 -100 0
100 -98 -95 0
95 98 100 0
-100 0
101 102 0
103 102 0
-101 -103 -102 0
-99 102 -104 0
99 -102 -104 0
104 -102 -99 0
99 102 104 0
-104 0
105 106 0
107 106 0
-105 -107 -106 0
-103 106 -108 0
103 -106 -108 0
108 -106 -103 0
103 106 108 0
-108 0
109 110 0
111 110 0
-109 -111 -110 0
-107 110 -112 0
107 -110 -112 0
112 -110 -107 0
107 110 112 0
-112 0
113 114 0
115 114 0
-113 -115 -114 0
-111 114 -116 0
111 -114 -116 0
116 -114 -111 0
111 114 116 0
-116 0
117 118 0
119 118 0
-117 -119 -118 0
-115 118 -120 0
115 -118 -120 0
120 -118 -115 0
115 118 120 0
-120 0
121 122 0
123 122 0
-121 -123 -122 0
-119 122 -124 0
119 -122 -124 0
124 -122 -119 0
119 122 124 0
-124 0
125 126 0
127 126 0
-125 -127 -126 0
-123 126 -128 0
123 -126 -128 0
128 -126 -123 0
123 126 128 0
-128 0
113 129 0
117 129 0
121 129 0
125 129 0
130 129 0
-131 0
-127 129 -132 0
127 -129 -132 0
132 -129 -127 0
127 129 132 0
-132 0
133 134 0
135 134 0
-133 -135 -134 0
-4 134 -136 0
4 -134 -136 0
136 -134 -4 0
4 134 136 0
-136 0
137 138 0
139 138 0
-137 -139 -138 0
-135 138 -140 0
135 -138 -140 0
140 -138 -135 0
135 138 140 0
-140 0
141 142 0
143 142 0
-141 -143 -142 0
-139 142 -144 0
139 -142 -144 0
144 -142 -139 0
139 142 144 0
-144 0
143 -145 0
145 -143 0
146 147 0
148 147 0
-146 -148 -147 0
-5 147 -149 0
5 -147 -149 0
149 -147 -5 0
5 147 149 0
-149 0
150 151 0
152 151 0
-150 -152 -151 0
-148 151 -153 0
148 -151 -153 0
153 -151 -148 0
148 151 153 0
-153 0
154 155 0
156 155 0
-154 -156 -155 0
-152 155 -157 0
152 -155 -157 0
157 -155 -152 0
152 155 157 0
-157 0
158 159 0
160 159 0
-158 -160 -159 0
-156 159 -161 0
156 -159 -161 0
161 -159 -156 0
156 159 161 0
-161 0
162 163 0
164 163 0
-162 -164 -163 0
-160 163 -165 0
160 -163 -165 0
165 -163 -160 0
160 163 165 0
-165 0
166 167 0
168 167 0
-166 -168 -167 0
-164 167 -169 0
164 -167 -169 0
169 -167 -164 0
164 167 169 0
-169 0
170 171 0
172 171 0
-170 -172 -171 0
-168 171 -173 0
168 -171 -173 0
173 -171 -168 0
168 171 173 0
-173 0
174 175 0
176 175 0
-174 -176 -175 0
-172 175 -177 0
172 -175 -177 0
177 -175 -172 0
172 175 177 0
-177 0
178 179 0
180 179 0
-178 -180 -179 0
-176 179 -181 0
176 -179 -181 0
181 -179 -176 0
176 179 181 0
-181 0
166 182 0
170 182 0
174 182 0
178 182 0
183 182 0
-184 0
-180 182 -185 0
180 -182 -185 0
185 -182 -180 0
180 182 185 0
-185 0
186 187 0
188 187 0
-186 -188 -187 0
-6 187 -189 0
6 -187 -189 0
189 -187 -6 0
6 187 189 0
-189 0
190 191 0
192 191 0
-190 -192 -191 0
-188 191 -193 0
188 -191 -193 0
193 -191 -188 0
188 191 193 0
-193 0
194 195 0
196 195 0
-194 -196 -195 0
-192 195 -197 0
192 -195 -197 0
197 -195 -192 0
192 195 197 0
-197 0
198 199 0
200 199 0
-198 -200 -199 0
-196 199 -201 0
196 -199 -201 0
201 -199 -196 0
196 199 201 0
-201 0
202 203 0
204 203 0
-202 -204 -203 0
-200 203 -205 0
200 -203 -205 0
205 -203 -200 0
200 203 205 0
-205 0
206 207 0
208 207 0
-206 -208 -207 0
-204 207 -209 0
204 -207 -209 0
209 -207 -204 0
204 207 209 0
-209 0
210 211 0
212 211 0
-210 -212 -211 0
-208 211 -213 0
208 -211 -213 0
213 -211 -208 0
208 211 213 0
-213 0
214 215 0
216 215 0
-214 -216 -215 0
-212 215 -217 0
212 -215 -217 0
217 -215 -212 0
212 215 217 0
-217 0
202 218 0
206 218 0
210 218 0
214 218 0
219 218 0
-220 0
-216 218 -221 0
216 -218 -221 0
221 -218 -216 0
216 218 221 0
-221 0
222 223 0
224 223 0
-222 -224 -223 0
-7 223 -225 0
7 -223 -225 0
225 -223 -7 0
7 223 225 0
-225 0
226 227 0
228 227 0
-226 -228 -227 0
-224 227 -229 0
224 -227 -229 0
229 -227 -224 0
224 227 229 0
-229 0
230 231 0
232 231 0
-230 -232 -231 0
-228 231 -233 0
228 -231 -233 0
233 -231 -228 0
228 231 233 0
-233 0
234 235 0
236 235 0
-234 -236 -235 0
-232 235 -237 0
232 -235 -237 0
237 -235 -232 0
232 235 237 0
-237 0
238 239 0
240 239 0
-238 -240 -239 0
-236 239 -241 0
236 -239 -241 0
241 -239 -236 0
236 239 241 0
-241 0
242 243 0
244 243 0
-242 -244 -243 0
-240 243 -245 0
240 -243 -245 0
245 -243 -240 0
240 243 245 0
-245 0
246 247 0
248 247 0
-246 -248 -247 0
-244 247 -249 0
244 -247 -249 0
249 -247 -244 0
244 247 249 0
-249 0
250 251 0
252 251 0
-250 -252 -251 0
-248 251 -253 0
248 -251 -253 0
253 -251 -248 0
248 251 253 0
-253 0
254 255 0
256 255 0
-254 -256 -255 0
-252 255 -257 0
252 -255 -257 0
257 -255 -252 0
252 255 257 0
-257 0
258 259 0
260 259 0
-258 -260 -259 0
-256 259 -261 0
256 -259 -261 0
261 -259 -256 0
256 259 261 0
-261 0
242 262 0
246 262 0
250 262 0
254 262 0
258 262 0
263 262 0
-264 0
-260 262 -265 0
260 -262 -265 0
265 -262 -260 0
260 262 265 0
-265 0
266 267 0
268 267 0
-266 -268 -267 0
-8 267 -269 0
8 -267 -269 0
269 -267 -8 0
8 267 269 0
-269 0
270 271 0
272 271 0
-270 -272 -271 0
-268 271 -273 0
268 -271 -273 0
273 -271 -268 0
268 271 273 0
-273 0
274 275 0
276 275 0
-274 -276 -275 0
-272 275 -277 0
272 -275 -277 0
277 -275 -272 0
272 275 277 0
-277 0
278 279 0
280 279 0
-278 -280 -279 0
-276 279 -281 0
276 -279 -281 0
281 -279 -276 0
276 279 281 0
-281 0
282 283 0
284 283 0
-282 -284 -283 0
-280 283 -285 0
280 -283 -285 0
285 -283 -280 0
280 283 285 0
-285 0
286 287 0
288 287 0
-286 -288 -287 0
-284 287 -289 0
284 -287 -289 0
289 -287 -284 0
284 287 289 0
-289 0
290 291 0
292 291 0
-290 -292 -291 0
-288 291 -293 0
288 -291 -293 0
293 -291 -288 0
288 291 293 0
-293 0
294 295 0
296 295 0
-294 -296 -295 0
-292 295 -297 0
292 -295 -297 0
297 -295 -292 0
292 295 297 0
-297 0
286 298 0
290 298 0
294 298 0
299 298 0
-300 0
-296 298 -301 0
296 -298 -301 0
301 -298 -296 0
296 298 301 0
-301 0
302 303 0
304 303 0
-302 -304 -303 0
-9 303 -305 0
9 -303 -305 0
305 -303 -9 0
9 303 305 0
-305 0
306 307 0
308 307 0
-306 -308 -307 0
-304 307 -309 0
304 -307 -309 0
309 -307 -304 0
304 307 309 0
-309 0
310 311 0
312 311 0
-310 -312 -311 0
-308 311 -313 0
308 -311 -313 0
313 -311 -308 0
308 311 313 0
-313 0
314 315 0
316 315 0
-314 -316 -315 0
-312 315 -317 0
312 -315 -317 0
317 -315 -312 0
312 315 317 0
-317 0
318 319 0
320 319 0
-318 -320 -319 0
-316 319 -321 0
316 -319 -321 0
321 -319 -316 0
316 319 321 0
-321 0
322 323 0
324 323 0
-322 -324 -323 0
-320 323 -325 0
320 -323 -325 0
325 -323 -320 0
320 323 325 0
-325 0
326 327 0
328 327 0
-326 -328 -327 0
-324 327 -329 0
324 -327 -329 0
329 -327 -324 0
324 327 329 0
-329 0
330 331 0
332 331 0
-330 -332 -331 0
-328 331 -333 0
328 -331 -333 0
333 -331 -328 0
328 331 333 0
-333 0
334 335 0
336 335 0
-334 -336 -335 0
-332 335 -337 0
332 -335 -337 0
337 -335 -332 0
332 335 337 0
-337 0
338 339 0
340 339 0
-338 -340 -339 0
-336 339 -341 0
336 -339 -341 0
341 -339 -336 0
336 339 341 0
-341 0
322 342 0
326 342 0
330 342 0
334 342 0
338 342 0
343 342 0
-344 0
-340 342 -345 0
340 -342 -345 0
345 -342 -340 0
340 342 345 0
-345 0
346 347 0
348 347 0
-346 -348 -347 0
-10 347 -349 0
10 -347 -349 0
349 -347 -10 0
10 347 349 0
-349 0
350 351 0
352 351 0
-350 -352 -351 0
-348 351 -353 0
348 -351 -353 0
353 -351 -348 0
348 351 353 0
-353 0
354 355 0
356 355 0
-354 -356 -355 0
-352 355 -357 0
352 -355 -357 0
357 -355 -352 0
352 355 357 0
-357 0
358 359 0
360 359 0
-358 -360 -359 0
-356 359 -361 0
356 -359 -361 0
361 -359 -356 0
356 359 361 0
-361 0
362 363 0
364 363 0
-362 -364 -363 0
-360 363 -365 0
360 -363 -365 0
365 -363 -360 0
360 363 365 0
-365 0
366 367 0
368 367 0
-366 -368 -367 0
-364 367 -369 0
364 -367 -369 0
369 -367 -364 0
364 367 369 0
-369 0
370 371 0
372 371 0
-370 -372 -371 0
-368 371 -373 0
368 -371 -373 0
373 -371 -368 0
368 371 373 0
-373 0
374 375 0
376 375 0
-374 -376 -375 0
-372 375 -377 0
372 -375 -377 0
377 -375 -372 0
372 375 377 0
-377 0
378 379 0
380 379 0
-378 -380 -379 0
-376 379 -381 0
376 -379 -381 0
381 -379 -376 0
376 379 381 0
-381 0
362 382 0
366 382 0
370 382 0
374 382 0
378 382 0
383 382 0
-384 0
-380 382 -385 0
380 -382 -385 0
385 -382 -380 0
380 382 385 0
-385 0
386 387 0
388 387 0
-386 -388 -387 0
-11 387 -389 0
11 -387 -389 0
389 -387 -11 0
11 387 389 0
-389 0
390 391 0
392 391 0
-390 -392 -391 0
-388 391 -393 0
388 -391 -393 0
393 -391 -388 0
388 391 393 0
-393 0
394 395 0
396 395 0
-394 -396 -395 0
-392 395 -397 0
392 -395 -397 0
397 -395 -392 0
392 395 397 0
-397 0
398 399 0
400 399 0
-398 -400 -399 0
-396 399 -401 0
396 -399 -401 0
401 -399 -396 0
396 399 401 0
-401 0
402 403 0
404 403 0
-402 -404 -403 0
-400 403 -405 0
400 -403 -405 0
405 -403 -400 0
400 403 405 0
-405 0
406 407 0
408 407 0
-406 -408 -407 0
-404 407 -409 0
404 -407 -409 0
409 -407 -404 0
404 407 409 0
-409 0
410 411 0
412 411 0
-410 -412 -411 0
-408 411 -413 0
408 -411 -413 0
413 -411 -408 0
408 411 413 0
-413 0
414 415 0
416 415 0
-414 -416 -415 0
-412 415 -417 0
412 -415 -417 0
417 -415 -412 0
412 415 417 0
-417 0
402 418 0
406 418 0
410 418 0
414 418 0
419 418 0
-420 0
-416 418 -421 0
416 -418 -421 0
421 -418 -416 0
416 418 421 0
-421 0
422 423 0
424 423 0
-422 -424 -423 0
-12 423 -425 0
12 -423 -425 0
425 -423 -12 0
12 423 425 0
-425 0
426 427 0
428 427 0
-426 -428 -427 0
-424 427 -429 0
424 -427 -429 0
429 -427 -424 0
424 427 429 0
-429 0
430 431 0
432 431 0
-430 -432 -431 0
-428 431 -433 0
428 -431 -433 0
433 -431 -428 0
428 431 433 0
-433 0
434 435 0
436 435 0
-434 -436 -435 0
-432 435 -437 0
432 -435 -437 0
437 -435 -432 0
432 435 437 0
-437 0
438 439 0
440 439 0
-438 -440 -439 0
-436 439 -441 0
436 -439 -441 0
441 -439 -436 0
436 439 441 0
-441 0
442 443 0
444 443 0
-442 -444 -443 0
-440 443 -445 0
440 -443 -445 0
445 -443 -440 0
440 443 445 0
-445 0
446 447 0
448 447 0
-446 -448 -447 0
-444 447 -449 0
444 -447 -449 0
449 -447 -444 0
444 447 449 0
-449 0
450 451 0
452 451 0
-450 -452 -451 0
-448 451 -453 0
448 -451 -453 0
453 -451 -448 0
448 451 453 0
-453 0
454 455 0
456 455 0
-454 -456 -455 0
-452 455 -457 0
452 -455 -457 0
457 -455 -452 0
452 455 457 0
-457 0
458 459 0
460 459 0
-458 -460 -459 0
-456 459 -461 0
456 -459 -461 0
461 -459 -456 0
456 459 461 0
-461 0
442 462 0
446 462 0
450 462 0
454 462 0
458 462 0
463 462 0
-464 0
-460 462 -465 0
460 -462 -465 0
465 -462 -460 0
460 462 465 0
-465 0
466 467 0
468 467 0
-466 -468 -467 0
-13 467 -469 0
13 -467 -469 0
469 -467 -13 0
13 467 469 0
-469 0
470 471 0
472 471 0
-470 -472 -471 0
-468 471 -473 0
468 -471 -473 0
473 -471 -468 0
468 471 473 0
-473 0
474 475 0
476 475 0
-474 -476 -475 0
-472 475 -477 0
472 -475 -477 0
477 -475 -472 0
472 475 477 0
-477 0
478 479 0
480 479 0
-478 -480 -479 0
-476 479 -481 0
476 -479 -481 0
481 -479 -476 0
476 479 481 0
-481 0
482 483 0
484 483 0
-482 -484 -483 0
-480 483 -485 0
480 -483 -485 0
485 -483 -480 0
480 483 485 0
-485 0
486 487 0
488 487 0
-486 -488 -487 0
-484 487 -489 0
484 -487 -489 0
489 -487 -484 0
484 487 489 0
-489 0
490 491 0
492 491 0
-490 -492 -491 0
-488 491 -493 0
488 -491 -493 0
493 -491 -488 0
488 491 493 0
-493 0
494 495 0
496 495 0
-494 -496 -495 0
-492 495 -497 0
492 -495 -497 0
497 -495 -492 0
492 495 497 0
-497 0
498 499 0
500 499 0
-498 -500 -499 0
-496 499 -501 0
496 -499 -501 0
501 -499 -496 0
496 499 501 0
-501 0
502 503 0
504 503 0
-502 -504 -503 0
-500 503 -505 0
500 -503 -505 0
505 -503 -500 0
500 503 505 0
-505 0
486 506 0
490 506 0
494 506 0
498 506 0
502 506 0
507 506 0
-508 0
-504 506 -509 0
504 -506 -509 0
509 -506 -504 0
504 506 509 0
-509 0
510 511 0
512 511 0
-510 -512 -511 0
-14 511 -513 0
14 -511 -513 0
513 -511 -14 0
14 511 513 0
-513 0
514 515 0
516 515 0
-514 -516 -515 0
-512 515 -517 0
512 -515 -517 0
517 -515 -512 0
512 515 517 0
-517 0
518 519 0
520 519 0
-518 -520 -519 0
-516 519 -521 0
516 -519 -521 0
521 -519 -516 0
516 519 521 0
-521 0
522 523 0
524 523 0
-522 -524 -523 0
-520 523 -525 0
520 -523 -525 0
525 -523 -520 0
520 523 525 0
-525 0
526 527 0
528 527 0
-526 -528 -527 0
-524 527 -529 0
524 -527 -529 0
529 -527 -524 0
524 527 529 0
-529 0
530 531 0
532 531 0
-530 -532 -531 0
-528 531 -533 0
528 -531 -533 0
533 -531 -528 0
528 531 533 0
-533 0
534 535 0
536 535 0
-534 -536 -535 0
-532 535 -537 0
532 -535 -537 0
537 -535 -532 0
532 535 537 0
-537 0
526 538 0
530 538 0
534 538 0
539 538 0
-540 0
-536 538 -541 0
536 -538 -541 0
541 -538 -536 0
536 538 541 0
-541 0
542 543 0
544 543 0
-542 -544 -543 0
-15 543 -545 0
15 -543 -545 0
545 -543 -15 0
15 543 545 0
-545 0
546 547 0
548 547 0
-546 -548 -547 0
-544 547 -549 0
544 -547 -549 0
549 -547 -544 0
544 547 549 0
-549 0
550 551 0
552 551 0
-550 -552 -551 0
-548 551 -553 0
548 -551 -553 0
553 -551 -548 0
548 551 553 0
-553 0
554 555 0
556 555 0
-554 -556 -555 0
-552 555 -557 0
552 -555 -557 0
557 -555 -552 0
552 555 557 0
-557 0
558 559 0
560 559 0
-558 -560 -559 0
-556 559 -561 0
556 -559 -561 0
561 -559 -556 0
556 559 561 0
-561 0
550 562 0
554 562 0
558 562 0
563 562 0
-564 0
-560 562 -565 0
560 -562 -565 0
565 -562 -560 0
560 562 565 0
-565 0
566 567 0
568 567 0
-566 -568 -567 0
-16 567 -569 0
16 -567 -569 0
569 -567 -16 0
16 567 569 0
-569 0
570 571 0
572 571 0
-570 -572 -571 0
-568 571 -573 0
568 -571 -573 0
573 -571 -568 0
568 571 573 0
-573 0
574 575 0
576 575 0
-574 -576 -575 0
-572 575 -577 0
572 -575 -577 0
577 -575 -572 0
572 575 577 0
-577 0
578 579 0
580 579 0
-578 -580 -579 0
-576 579 -581 0
576 -579 -581 0
581 -579 -576 0
576 579 581 0
-581 0
582 583 0
584 583 0
-582 -584 -583 0
-580 583 -585 0
580 -583 -585 0
585 -583 -580 0
580 583 585 0
-585 0
586 587 0
588 587 0
-586 -588 -587 0
-584 587 -589 0
584 -587 -589 0
589 -587 -584 0
584 587 589 0
-589 0
590 591 0
592 591 0
-590 -592 -591 0
-588 591 -593 0
588 -591 -593 0
593 -591 -588 0
588 591 593 0
-593 0
594 595 0
596 595 0
-594 -596 -595 0
-592 595 -597 0
592 -595 -597 0
597 -595 -592 0
592 595 597 0
-597 0
598 599 0
600 599 0
-598 -600 -599 0
-596 599 -601 0
596 -599 -601 0
601 -599 -596 0
596 599 601 0
-601 0
602 603 0
604 603 0
-602 -604 -603 0
-600 603 -605 0
600 -603 -605 0
605 -603 -600 0
600 603 605 0
-605 0
586 606 0
590 606 0
594 606 0
598 606 0
602 606 0
607 606 0
-608 0
-604 606 -609 0
604 -606 -609 0
609 -606 -604 0
604 606 609 0
-609 0
610 611 0
612 611 0
-610 -612 -611 0
-17 611 -613 0
17 -611 -613 0
613 -611 -17 0
17 611 613 0
-613 0
614 615 0
616 615 0
-614 -616 -615 0
-612 615 -617 0
612 -615 -617 0
617 -615 -612 0
612 615 617 0
-617 0
618 619 0
620 619 0
-618 -620 -619 0
-616 619 -621 0
616 -619 -621 0
621 -619 -616 0
616 619 621 0
-621 0
622 623 0
624 623 0
-622 -624 -623 0
-620 623 -625 0
620 -623 -625 0
625 -623 -620 0
620 623 625 0
-625 0
626 627 0
628 627 0
-626 -628 -627 0
-624 627 -629 0
624 -627 -629 0
629 -627 -624 0
624 627 629 0
-629 0
630 631 0
632 631 0
-630 -632 -631 0
-628 631 -633 0
628 -631 -633 0
633 -631 -628 0
628 631 633 0
-633 0
634 635 0
636 635 0
-634 -636 -635 0
-632 635 -637 0
632 -635 -637 0
637 -635 -632 0
632 635 637 0
-637 0
638 639 0
640 639 0
-638 -640 -639 0
-636 639 -641 0
636 -639 -641 0
641 -639 -636 0
636 639 641 0
-641 0
642 643 0
644 643 0
-642 -644 -643 0
-640 643 -645 0
640 -643 -645 0
645 -643 -640 0
640 643 645 0
-645 0
626 646 0
630 646 0
634 646 0
638 646 0
642 646 0
647 646 0
-648 0
-644 646 -649 0
644 -646 -649 0
649 -646 -644 0
644 646 649 0
-649 0
650 651 0
652 651 0
-650 -652 -651 0
-18 651 -653 0
18 -651 -653 0
653 -651 -18 0
18 651 653 0
-653 0
654 655 0
656 655 0
-654 -656 -655 0
-652 655 -657 0
652 -655 -657 0
657 -655 -652 0
652 655 657 0
-657 0
658 659 0
660 659 0
-658 -660 -659 0
-656 659 -661 0
656 -659 -661 0
661 -659 -656 0
656 659 661 0
-661 0
662 663 0
664 663 0
-662 -664 -663 0
-660 663 -665 0
660 -663 -665 0
665 -663 -660 0
660 663 665 0
-665 0
666 667 0
668 667 0
-666 -668 -667 0
-664 667 -669 0
664 -667 -669 0
669 -667 -664 0
664 667 669 0
-669 0
670 671 0
672 671 0
-670 -672 -671 0
-668 671 -673 0
668 -671 -673 0
673 -671 -668 0
668 671 673 0
-673 0
674 675 0
676 675 0
-674 -676 -675 0
-672 675 -677 0
672 -675 -677 0
677 -675 -672 0
672 675 677 0
-677 0
678 679 0
680 679 0
-678 -680 -679 0
-676 679 -681 0
676 -679 -681 0
681 -679 -676 0
676 679 681 0
-681 0
682 683 0
684 683 0
-682 -684 -683 0
-680 683 -685 0
680 -683 -685 0
685 -683 -680 0
680 683 685 0
-685 0
686 687 0
688 687 0
-686 -688 -687 0
-684 687 -689 0
684 -687 -689 0
689 -687 -684 0
684 687 689 0
-689 0
690 691 0
692 691 0
-690 -692 -691 0
-688 691 -693 0
688 -691 -693 0
693 -691 -688 0
688 691 693 0
-693 0
674 694 0
678 694 0
682 694 0
686 694 0
690 694 0
695 694 0
-696 0
-692 694 -697 0
692 -694 -697 0
697 -694 -692 0
692 694 697 0
-697 0
698 699 0
700 699 0
-698 -700 -699 0
-19 699 -701 0
19 -699 -701 0
701 -699 -19 0
19 699 701 0
-701 0
702 703 0
704 703 0
-702 -704 -703 0
-700 703 -705 0
700 -703 -705 0
705 -703 -700 0
700 703 705 0
-705 0
706 707 0
708 707 0
-706 -708 -707 0
-704 707 -709 0
704 -707 -709 0
709 -707 -704 0
704 707 709 0
-709 0
710 711 0
712 711 0
-710 -712 -711 0
-708 711 -713 0
708 -711 -713 0
713 -711 -708 0
708 711 713 0
-713 0
714 715 0
716 715 0
-714 -716 -715 0
-712 715 -717 0
712 -715 -717 0
717 -715 -712 0
712 715 717 0
-717 0
718 719 0
720 719 0
-718 -720 -719 0
-716 719 -721 0
716 -719 -721 0
721 -719 -716 0
716 719 721 0
-721 0
722 723 0
724 723 0
-722 -724 -723 0
-720 723 -725 0
720 -723 -725 0
725 -723 -720 0
720 723 725 0
-725 0
726 727 0
728 727 0
-726 -728 -727 0
-724 727 -729 0
724 -727 -729 0
729 -727 -724 0
724 727 729 0
-729 0
730 731 0
732 731 0
-730 -732 -731 0
-728 731 -733 0
728 -731 -733 0
733 -731 -728 0
728 731 733 0
-733 0
722 734 0
726 734 0
730 734 0
735 734 0
-736 0
-732 734 -737 0
732 -734 -737 0
737 -734 -732 0
732 734 737 0
-737 0
738 739 0
740 739 0
-738 -740 -739 0
-20 739 -741 0
20 -739 -741 0
741 -739 -20 0
20 739 741 0
-741 0
742 743 0
744 743 0
-742 -744 -743 0
-740 743 -745 0
740 -743 -745 0
745 -743 -740 0
740 743 745 0
-745 0
746 747 0
748 747 0
-746 -748 -747 0
-744 747 -749 0
744 -747 -749 0
749 -747 -744 0
744 747 749 0
-749 0
750 751 0
752 751 0
-750 -752 -751 0
-748 751 -753 0
748 -751 -753 0
753 -751 -748 0
748 751 753 0
-753 0
754 755 0
756 755 0
-754 -756 -755 0
-752 755 -757 0
752 -755 -757 0
757 -755 -752 0
752 755 757 0
-757 0
758 759 0
760 759 0
-758 -760 -759 0
-756 759 -761 0
756 -759 -761 0
761 -759 -756 0
756 759 761 0
-761 0
762 763 0
764 763 0
-762 -764 -763 0
-760 763 -765 0
760 -763 -765 0
765 -763 -760 0
760 763 765 0
-765 0
766 767 0
768 767 0
-766 -768 -767 0
-764 767 -769 0
764 -767 -769 0
769 -767 -764 0
764 767 769 0
-769 0
758 770 0
762 770 0
766 770 0
771 770 0
-772 0
-768 770 -773 0
768 -770 -773 0
773 -770 -768 0
768 770 773 0
-773 0
774 775 0
-776 775 0
-774 776 -775 0
21 -775 0
-21 775 0
777 778 0
-779 778 0
-777 779 -778 0
25 -778 0
-25 778 0
780 781 0
-782 781 0
-780 782 -781 0
29 -781 0
-29 781 0
783 784 0
-785 784 0
-783 785 -784 0
33 -784 0
-33 784 0
786 787 0
-788 787 0
-786 788 -787 0
37 -787 0
-37 787 0
789 790 0
-791 790 0
-789 791 -790 0
41 -790 0
-41 790 0
792 793 0
-794 793 0
-792 794 -793 0
46 -793 0
-46 793 0
795 796 0
-797 796 0
-795 797 -796 0
49 -796 0
-49 796 0
798 799 0
-800 799 0
-798 800 -799 0
53 -799 0
-53 799 0
801 802 0
-803 802 0
-801 803 -802 0
57 -802 0
-57 802 0
804 805 0
-806 805 0
-804 806 -805 0
61 -805 0
-61 805 0
807 808 0
-809 808 0
-807 809 -808 0
65 -808 0
-65 808 0
810 811 0
-812 811 0
-810 812 -811 0
69 -811 0
-69 811 0
813 814 0
-815 814 0
-813 815 -814 0
73 -814 0
-73 814 0
816 817 0
-818 817 0
-816 818 -817 0
77 -817 0
-77 817 0
819 820 0
-821 820 0
-819 821 -820 0
81 -820 0
-81 820 0
822 823 0
-824 823 0
-822 824 -823 0
85 -823 0
-85 823 0
825 826 0
-827 826 0
-825 827 -826 0
90 -826 0
-90 826 0
828 829 0
-830 829 0
-828 830 -829 0
93 -829 0
-93 829 0
831 832 0
-833 832 0
-831 833 -832 0
97 -832 0
-97 832 0
834 835 0
-836 835 0
-834 836 -835 0
101 -835 0
-101 835 0
837 838 0
-839 838 0
-837 839 -838 0
105 -838 0
-105 838 0
840 841 0
-842 841 0
-840 842 -841 0
109 -841 0
-109 841 0
843 844 0
-845 844 0
-843 845 -844 0
113 -844 0
-113 844 0
846 847 0
-848 847 0
-846 848 -847 0
117 -847 0
-117 847 0
849 850 0
-851 850 0
-849 851 -850 0
121 -850 0
-121 850 0
852 853 0
-854 853 0
-852 854 -853 0
125 -853 0
-125 853 0
855 856 0
-857 856 0
-855 857 -856 0
130 -856 0
-130 856 0
858 859 0
-860 859 0
-858 860 -859 0
133 -859 0
-133 859 0
861 862 0
-863 862 0
-861 863 -862 0
137 -862 0
-137 862 0
864 865 0
-866 865 0
-864 866 -865 0
141 -865 0
-141 865 0
867 868 0
-869 868 0
-867 869 -868 0
145 -868 0
-145 868 0
870 871 0
-872 871 0
-870 872 -871 0
146 -871 0
-146 871 0
873 874 0
-875 874 0
-873 875 -874 0
150 -874 0
-150 874 0
876 877 0
-878 877 0
-876 878 -877 0
154 -877 0
-154 877 0
879 880 0
-881 880 0
-879 881 -880 0
158 -880 0
-158 880 0
882 883 0
-884 883 0
-882 884 -883 0
162 -883 0
-162 883 0
885 886 0
-887 886 0
-885 887 -886 0
166 -886 0
-166 886 0
888 889 0
-890 889 0
-888 890 -889 0
170 -889 0
-170 889 0
891 892 0
-893 892 0
-891 893 -892 0
174 -892 0
-174 892 0
894 895 0
-896 895 0
-894 896 -895 0
178 -895 0
-178 895 0
897 898 0
-899 898 0
-897 899 -898 0
183 -898 0
-183 898 0
900 901 0
-902 901 0
-900 902 -901 0
186 -901 0
-186 901 0
903 904 0
-905 904 0
-903 905 -904 0
190 -904 0
-190 904 0
906 907 0
-908 907 0
-906 908 -907 0
194 -907 0
-194 907 0
909 910 0
-911 910 0
-909 911 -910 0
198 -910 0
-198 910 0
912 913 0
-914 913 0
-912 914 -913 0
202 -913 0
-202 913 0
915 916 0
-917 916 0
-915 917 -916 0
206 -916 0
-206 916 0
918 919 0
-920 919 0
-918 920 -919 0
210 -919 0
-210 919 0
921 922 0
-923 922 0
-921 923 -922 0
214 -922 0
-214 922 0
924 925 0
-926 925 0
-924 926 -925 0
219 -925 0
-219 925 0
927 928 0
-929 928 0
-927 929 -928 0
222 -928 0
-222 928 0
930 931 0
-932 931 0
-930 932 -931 0
226 -931 0
-226 931 0
933 934 0
-935 934 0
-933 935 -934 0
230 -934 0
-230 934 0
936 937 0
-938 937 0
-936 938 -937 0
234 -937 0
-234 937 0
939 940 0
-941 940 0
-939 941 -940 0
238 -940 0
-238 940 0
942 943 0
-944 943 0
-942 944 -943 0
242 -943 0
-242 943 0
945 946 0
-947 946 0
-945 947 -946 0
246 -946 0
-246 946 0
948 949 0
-950 949 0
-948 950 -949 0
250 -949 0
-250 949 0
951 952 0
-953 952 0
-951 953 -952 0
254 -952 0
-254 952 0
954 955 0
-956 955 0
-954 956 -955 0
258 -955 0
-258 955 0
957 958 0
-959 958 0
-957 959 -958 0
263 -958 0
-263 958 0
960 961 0
-962 961 0
-960 962 -961 0
266 -961 0
-266 961 0
963 964 0
-965 964 0
-963 965 -964 0
270 -964 0
-270 964 0
966 967 0
-968 967 0
-966 968 -967 0
274 -967 0
-274 967 0
969 970 0
-971 970 0
-969 971 -970 0
278 -970 0
-278 970 0
972 973 0
-974 973 0
-972 974 -973 0
282 -973 0
-282 973 0
975 976 0
-977 976 0
-975 977 -976 0
286 -976 0
-286 976 0
978 979 0
-980 979 0
-978 980 -979 0
290 -979 0
-290 979 0
981 982 0
-983 982 0
-981 983 -982 0
294 -982 0
-294 982 0
984 985 0
-986 985 0
-984 986 -985 0
299 -985 0
-299 985 0
987 988 0
-989 988 0
-987 989 -988 0
302 -988 0
-302 988 0
990 991 0
-992 991 0
-990 992 -991 0
306 -991 0
-306 991 0
993 994 0
-995 994 0
-993 995 -994 0
310 -994 0
-310 994 0
996 997 0
-998 997 0
-996 998 -997 0
314 -997 0
-314 997 0
999 1000 0
-1001 1000 0
-999 1001 -1000 0
318 -1000 0
-318 1000 0
1002 1003 0
-1004 1003 0
-1002 1004 -1003 0
322 -1003 0
-322 1003 0
1005 1006 0
-1007 1006 0
-1005 1007 -1006 0
326 -1006 0
-326 1006 0
1008 1009 0
-1010 1009 0
-1008 1010 -1009 0
330 -1009 0
-330 1009 0
1011 1012 0
-1013 1012 0
-1011 1013 -1012 0
334 -1012 0
-334 1012 0
1014 1015 0
-1016 1015 0
-1014 1016 -1015 0
338 -1015 0
-338 1015 0
1017 1018 0
-1019 1018 0
-1017 1019 -1018 0
343 -1018 0
-343 1018 0
1020 1021 0
-1022 1021 0
-1020 1022 -1021 0
346 -1021 0
-346 1021 0
1023 1024 0
-1025 1024 0
-1023 1025 -1024 0
350 -1024 0
-350 1024 0
1026 1027 0
-1028 1027 0
-1026 1028 -1027 0
354 -1027 0
-354 1027 0
1029 1030 0
-1031 1030 0
-1029 1031 -1030 0
358 -1030 0
-358 1030 0
1032 1033 0
-1034 1033 0
-1032 1034 -1033 0
362 -1033 0
-362 1033 0
1035 1036 0
-1037 1036 0
-1035 1037 -1036 0
366 -1036 0
-366 1036 0
1038 1039 0
-1040 1039 0
-1038 1040 -1039 0
370 -1039 0
-370 1039 0
1041 1042 0
-1043 1042 0
-1041 1043 -1042 0
374 -1042 0
-374 1042 0
1044 1045 0
-1046 1045 0
-1044 1046 -1045 0
378 -1045 0
-378 1045 0
1047 1048 0
-1049 1048 0
-1047 1049 -1048 0
383 -1048 0
-383 1048 0
1050 1051 0
-1052 1051 0
-1050 1052 -1051 0
386 -1051 0
-386 1051 0
1053 1054 0
1054 -1055 0
-1053 1055 -1054 0
390 -1054 0
-390 1054 0
1056 1057 0
-1058 1057 0
-1056 1058 -1057 0
394 -1057 0
-394 1057 0
1059 1060 0
1060 -1061 0
-1059 1061 -1060 0
398 -1060 0
-398 1060 0
1062 1063 0
1063 -1064 0
-1062 1064 -1063 0
402 -1063 0
-402 1063 0
1065 1066 0
1066 -1067 0
-1065 1067 -1066 0
406 -1066 0
-406 1066 0
1068 1069 0
1069 -1070 0
-1068 1070 -1069 0
410 -1069 0
-410 1069 0
1071 1072 0
-1073 1072 0
-1071 1073 -1072 0
414 -1072 0
-414 1072 0
1074 1075 0
-1076 1075 0
-1074 1076 -1075 0
419 -1075 0
-419 1075 0
1077 1078 0
-1079 1078 0
-1077 1079 -1078 0
422 -1078 0
-422 1078 0
1080 1081 0
-1082 1081 0
-1080 1082 -1081 0
426 -1081 0
-426 1081 0
1083 1084 0
-1085 1084 0
-1083 1085 -1084 0
430 -1084 0
-430 1084 0
1086 1087 0
-1088 1087 0
-1086 1088 -1087 0
434 -1087 0
-434 1087 0
1089 1090 0
1090 -1091 0
-1089 1091 -1090 0
438 -1090 0
-438 1090 0
1092 1093 0
-1094 1093 0
-1092 1094 -1093 0
442 -1093 0
-442 1093 0
1095 1096 0
1096 -1097 0
-1095 1097 -1096 0
446 -1096 0
-446 1096 0
1098 1099 0
1099 -1100 0
-1098 1100 -1099 0
450 -1099 0
-450 1099 0
1101 1102 0
1102 -1103 0
-1101 1103 -1102 0
454 -1102 0
-454 1102 0
1104 1105 0
-1106 1105 0
-1104 1106 -1105 0
458 -1105 0
-458 1105 0
1107 1108 0
-1109 1108 0
-1107 1109 -1108 0
463 -1108 0
-463 1108 0
1110 1111 0
-1112 1111 0
-1110 1112 -1111 0
466 -1111 0
-466 1111 0
1113 1114 0
-1115 1114 0
-1113 1115 -1114 0
470 -1114 0
-470 1114 0
1116 1117 0
1117 -1118 0
-1116 1118 -1117 0
474 -1117 0
-474 1117 0
1119 1120 0
-1121 1120 0
-1119 1121 -1120 0
478 -1120 0
-478 1120 0
1122 1123 0
-1124 1123 0
-1122 1124 -1123 0
482 -1123 0
-482 1123 0
1125 1126 0
-1127 1126 0
-1125 1127 -1126 0
486 -1126 0
-486 1126 0
1128 1129 0
-1130 1129 0
-1128 1130 -1129 0
490 -1129 0
-490 1129 0
1131 1132 0
-1133 1132 0
-1131 1133 -1132 0
494 -1132 0
-494 1132 0
1134 1135 0
1135 -1136 0
-1134 1136 -1135 0
498 -1135 0
-498 1135 0
1137 1138 0
1138 -1139 0
-1137 1139 -1138 0
502 -1138 0
-502 1138 0
1140 1141 0
-1142 1141 0
-1140 1142 -1141 0
507 -1141 0
-507 1141 0
1143 1144 0
1144 -1145 0
-1143 1145 -1144 0
510 -1144 0
-510 1144 0
1146 1147 0
-1148 1147 0
-1146 1148 -1147 0
514 -1147 0
-514 1147 0
1149 1150 0
-1151 1150 0
-1149 1151 -1150 0
518 -1150 0
-518 1150 0
1152 1153 0
-1154 1153 0
-1152 1154 -1153 0
522 -1153 0
-522 1153 0
1155 1156 0
1156 -1157 0
-1155 1157 -1156 0
526 -1156 0
-526 1156 0
1158 1159 0
1159 -1160 0
-1158 1160 -1159 0
530 -1159 0
-530 1159 0
1161 1162 0
-1163 1162 0
-1161 1163 -1162 0
534 -1162 0
-534 1162 0
1164 1165 0
-1166 1165 0
-1164 1166 -1165 0
539 -1165 0
-539 1165 0
1167 1168 0
-1169 1168 0
-1167 1169 -1168 0
542 -1168 0
-542 1168 0
1170 1171 0
-1172 1171 0
-1170 1172 -1171 0
546 -1171 0
-546 1171 0
1173 1174 0
1174 -1175 0
-1173 1175 -1174 0
550 -1174 0
-550 1174 0
1176 1177 0
1177 -1178 0
-1176 1178 -1177 0
554 -1177 0
-554 1177 0
1179 1180 0
-1181 1180 0
-1179 1181 -1180 0
558 -1180 0
-558 1180 0
1182 1183 0
1183 -1184 0
-1182 1184 -1183 0
563 -1183 0
-563 1183 0
1185 1186 0
-1187 1186 0
-1185 1187 -1186 0
566 -1186 0
-566 1186 0
1188 1189 0
-1190 1189 0
-1188 1190 -1189 0
570 -1189 0
-570 1189 0
1191 1192 0
-1193 1192 0
-1191 1193 -1192 0
574 -1192 0
-574 1192 0
1194 1195 0
-1196 1195 0
-1194 1196 -1195 0
578 -1195 0
-578 1195 0
1197 1198 0
-1199 1198 0
-1197 1199 -1198 0
582 -1198 0
-582 1198 0
1200 1201 0
-1202 1201 0
-1200 1202 -1201 0
586 -1201 0
-586 1201 0
1203 1204 0
1204 -1205 0
-1203 1205 -1204 0
590 -1204 0
-590 1204 0
1206 1207 0
-1208 1207 0
-1206 1208 -1207 0
594 -1207 0
-594 1207 0
1209 1210 0
-1211 1210 0
-1209 1211 -1210 0
598 -1210 0
-598 1210 0
1212 1213 0
-1214 1213 0
-1212 1214 -1213 0
602 -1213 0
-602 1213 0
1215 1216 0
1216 -1217 0
-1215 1217 -1216 0
607 -1216 0
-607 1216 0
1218 1219 0
-1220 1219 0
-1218 1220 -1219 0
610 -1219 0
-610 1219 0
1221 1222 0
-1223 1222 0
-1221 1223 -1222 0
614 -1222 0
-614 1222 0
1224 1225 0
1225 -1226 0
-1224 1226 -1225 0
618 -1225 0
-618 1225 0
1227 1228 0
-1229 1228 0
-1227 1229 -1228 0
622 -1228 0
-622 1228 0
1230 1231 0
-1232 1231 0
-1230 1232 -1231 0
626 -1231 0
-626 1231 0
1233 1234 0
-1235 1234 0
-1233 1235 -1234 0
630 -1234 0
-630 1234 0
1236 1237 0
-1238 1237 0
-1236 1238 -1237 0
634 -1237 0
-634 1237 0
1239 1240 0
1240 -1241 0
-1239 1241 -1240 0
638 -1240 0
-638 1240 0
1242 1243 0
-1244 1243 0
-1242 1244 -1243 0
642 -1243 0
-642 1243 0
1245 1246 0
1246 -1247 0
-1245 1247 -1246 0
647 -1246 0
-647 1246 0
1248 1249 0
-1250 1249 0
-1248 1250 -1249 0
650 -1249 0
-650 1249 0
1251 1252 0
-1253 1252 0
-1251 1253 -1252 0
654 -1252 0
-654 1252 0
1254 1255 0
1255 -1256 0
-1254 1256 -1255 0
658 -1255 0
-658 1255 0
1257 1258 0
-1259 1258 0
-1257 1259 -1258 0
662 -1258 0
-662 1258 0
1260 1261 0
1261 -1262 0
-1260 1262 -1261 0
666 -1261 0
-666 1261 0
1263 1264 0
-1265 1264 0
-1263 1265 -1264 0
670 -1264 0
-670 1264 0
1266 1267 0
-1268 1267 0
-1266 1268 -1267 0
674 -1267 0
-674 1267 0
1269 1270 0
-1271 1270 0
-1269 1271 -1270 0
678 -1270 0
-678 1270 0
1272 1273 0
-1274 1273 0
-1272 1274 -1273 0
682 -1273 0
-682 1273 0
1275 1276 0
-1277 1276 0
-1275 1277 -1276 0
686 -1276 0
-686 1276 0
1278 1279 0
1279 -1280 0
-1278 1280 -1279 0
690 -1279 0
-690 1279 0
1281 1282 0
1282 -1283 0
-1281 1283 -1282 0
695 -1282 0
-695 1282 0
1284 1285 0
1285 -1286 0
-1284 1286 -1285 0
698 -1285 0
-698 1285 0
1287 1288 0
-1289 1288 0
-1287 1289 -1288 0
702 -1288 0
-702 1288 0
1290 1291 0
-1292 1291 0
-1290 1292 -1291 0
706 -1291 0
-706 1291 0
1293 1294 0
1294 -1295 0
-1293 1295 -1294 0
710 -1294 0
-710 1294 0
1296 1297 0
-1298 1297 0
-1296 1298 -1297 0
714 -1297 0
-714 1297 0
1299 1300 0
-1301 1300 0
-1299 1301 -1300 0
718 -1300 0
-718 1300 0
1302 1303 0
-1304 1303 0
-1302 1304 -1303 0
722 -1303 0
-722 1303 0
1305 1306 0
-1307 1306 0
-1305 1307 -1306 0
726 -1306 0
-726 1306 0
1308 1309 0
-1310 1309 0
-1308 1310 -1309 0
730 -1309 0
-730 1309 0
1311 1312 0
1312 -1313 0
-1311 1313 -1312 0
735 -1312 0
-735 1312 0
1314 1315 0
-1316 1315 0
-1314 1316 -1315 0
738 -1315 0
-738 1315 0
1317 1318 0
-1319 1318 0
-1317 1319 -1318 0
742 -1318 0
-742 1318 0
1320 1321 0
-1322 1321 0
-1320 1322 -1321 0
746 -1321 0
-746 1321 0
1323 1324 0
1324 -1325 0
-1323 1325 -1324 0
750 -1324 0
-750 1324 0
1326 1327 0
-1328 1327 0
-1326 1328 -1327 0
754 -1327 0
-754 1327 0
1329 1330 0
1330 -1331 0
-1329 1331 -1330 0
758 -1330 0
-758 1330 0
1332 1333 0
-1334 1333 0
-1332 1334 -1333 0
762 -1333 0
-762 1333 0
1335 1336 0
-1337 1336 0
-1335 1337 -1336 0
766 -1336 0
-766 1336 0
1338 1339 0
-1340 1339 0
-1338 1340 -1339 0
771 -1339 0
-771 1339 0
-774 0
777 0
780 0
-783 0
-786 0
-789 0
-792 0
-795 0
-798 0
-801 0
-804 0
-807 0
810 0
-813 0
816 0
-819 0
-822 0
-825 0
-828 0
831 0
834 0
837 0
840 0
843 0
846 0
849 0
852 0
-855 0
-858 0
-861 0
864 0
-867 0
-870 0
-873 0
-876 0
-879 0
882 0
885 0
888 0
891 0
-894 0
-897 0
-900 0
-903 0
906 0
-909 0
912 0
915 0
-918 0
-921 0
924 0
-927 0
-930 0
933 0
936 0
-939 0
942 0
-945 0
-948 0
-951 0
-954 0
957 0
960 0
-963 0
-966 0
969 0
-972 0
975 0
-978 0
981 0
984 0
-987 0
-990 0
993 0
996 0
-999 0
-1002 0
1005 0
1008 0
1011 0
1014 0
1017 0
-1020 0
-1023 0
-1026 0
1029 0
1032 0
1035 0
-1038 0
1041 0
-1044 0
-1047 0
-1050 0
1053 0
-1056 0
1059 0
1062 0
1065 0
1068 0
-1071 0
1074 0
-1077 0
-1080 0
-1083 0
-1086 0
1089 0
-1092 0
1095 0
1098 0
1101 0
-1104 0
-1107 0
-1110 0
-1113 0
1116 0
-1119 0
-1122 0
-1125 0
1128 0
1131 0
1134 0
1137 0
-1140 0
1143 0
1146 0
-1149 0
1152 0
1155 0
1158 0
-1161 0
-1164 0
1167 0
-1170 0
1173 0
1176 0
-1179 0
1182 0
-1185 0
-1188 0
-1191 0
1194 0
-1197 0
1200 0
1203 0
1206 0
-1209 0
-1212 0
1215 0
-1218 0
-1221 0
1224 0
-1227 0
1230 0
-1233 0
-1236 0
1239 0
1242 0
1245 0
1248 0
-1251 0
1254 0
-1257 0
1260 0
1263 0
-1266 0
-1269 0
-1272 0
-1275 0
1278 0
1281 0
1284 0
1287 0
1290 0
1293 0
-1296 0
-1299 0
1302 0
-1305 0
-1308 0
1311 0
1314 0
-1317 0
1320 0
1323 0
-1326 0
1329 0
-1332 0
1335 0
1338 0
-1341 -1342 0
776 -1341 0
-1341 -779 0
-1341 -782 0
-1341 -785 0
-1341 -788 0
-1341 -791 0
-1341 -794 0
797 -1341 0
800 -1341 0
803 -1341 0
806 -1341 0
809 -1341 0
-1341 -812 0
-1341 -815 0
-1341 -818 0
-1341 -821 0
-1341 -824 0
-1341 -827 0
830 -1341 0
-1341 -833 0
-1341 -836 0
-1341 -839 0
-1341 -842 0
-1341 -845 0
-1341 -848 0
-1341 -851 0
-1341 -854 0
-1341 -857 0
-1341 -860 0
863 -1341 0
-1341 -866 0
-1341 -869 0
872 -1341 0
875 -1341 0
878 -1341 0
-1341 -881 0
-1341 -884 0
-1341 -887 0
-1341 -890 0
-1341 -893 0
-1341 -896 0
-1341 -899 0
902 -1341 0
905 -1341 0
-1341 -908 0
-1341 -911 0
-1341 -914 0
-1341 -917 0
-1341 -920 0
-1341 -923 0
-1341 -926 0
929 -1341 0
932 -1341 0
-1341 -935 0
-1341 -938 0
-1341 -941 0
-1341 -944 0
-1341 -947 0
-1341 -950 0
-1341 -953 0
-1341 -956 0
-1341 -959 0
-1341 -962 0
-1341 -965 0
-1341 -968 0
-1341 -971 0
-1341 -974 0
-1341 -977 0
-1341 -980 0
-1341 -983 0
-1341 -986 0
-1341 -989 0
992 -1341 0
-1341 -995 0
-1341 -998 0
-1341 -1001 0
-1341 -1004 0
-1341 -1007 0
-1341 -1010 0
-1341 -1013 0
-1341 -1016 0
-1341 -1019 0
1022 -1341 0
1025 -1341 0
1028 -1341 0
-1341 -1031 0
-1341 -1034 0
-1341 -1037 0
-1341 -1040 0
-1341 -1043 0
-1341 -1046 0
-1341 -1049 0
1052 -1341 0
1055 -1341 0
1058 -1341 0
1061 -1341 0
1064 -1341 0
1067 -1341 0
1070 -1341 0
1073 -1341 0
-1341 -1076 0
-1341 -1079 0
1082 -1341 0
-1341 -1085 0
-1341 -1088 0
1091 -1341 0
1094 -1341 0
1097 -1341 0
1100 -1341 0
1103 -1341 0
-1341 -1106 0
1109 -1341 0
-1341 -1112 0
-1341 -1115 0
1118 -1341 0
1121 -1341 0
-1341 -1124 0
1127 -1341 0
-1341 -1130 0
-1341 -1133 0
1136 -1341 0
1139 -1341 0
1142 -1341 0
1145 -1341 0
-1341 -1148 0
-1341 -1151 0
-1341 -1154 0
1157 -1341 0
1160 -1341 0
-1341 -1163 0
-1341 -1166 0
-1341 -1169 0
1172 -1341 0
1175 -1341 0
1178 -1341 0
1181 -1341 0
1184 -1341 0
-1341 -1187 0
-1341 -1190 0
-1341 -1193 0
-1341 -1196 0
1199 -1341 0
-1341 -1202 0
1205 -1341 0
-1341 -1208 0
-1341 -1211 0
-1341 -1214 0
1217 -1341 0
-1341 -1220 0
-1341 -1223 0
1226 -1341 0
-1341 -1229 0
-1341 -1232 0
1235 -1341 0
1238 -1341 0
1241 -1341 0
-1341 -1244 0
1247 -1341 0
-1341 -1250 0
1253 -1341 0
1256 -1341 0
-1341 -1259 0
1262 -1341 0
-1341 -1265 0
1268 -1341 0
1271 -1341 0
1274 -1341 0
1277 -1341 0
1280 -1341 0
1283 -1341 0
1286 -1341 0
-1341 -1289 0
-1341 -1292 0
1295 -1341 0
-1341 -1298 0
-1341 -1301 0
-1341 -1304 0
1307 -1341 0
1310 -1341 0
1313 -1341 0
-1341 -1316 0
1319 -1341 0
-1341 -1322 0
1325 -1341 0
-1341 -1328 0
1331 -1341 0
1334 -1341 0
-1341 -1337 0
-1341 -1340 0
-1342 -776 0
779 -1342 0
782 -1342 0
-1342 -785 0
-1342 -788 0
-1342 -791 0
-1342 -794 0
-1342 -797 0
-1342 -800 0
-1342 -803 0
-1342 -806 0
-1342 -809 0
812 -1342 0
-1342 -815 0
818 -1342 0
-1342 -821 0
-1342 -824 0
-1342 -827 0
-1342 -830 0
833 -1342 0
836 -1342 0
839 -1342 0
842 -1342 0
845 -1342 0
848 -1342 0
851 -1342 0
854 -1342 0
-1342 -857 0
-1342 -860 0
-1342 -863 0
866 -1342 0
-1342 -869 0
-1342 -872 0
-1342 -875 0
-1342 -878 0
-1342 -881 0
884 -1342 0
887 -1342 0
890 -1342 0
893 -1342 0
-1342 -896 0
-1342 -899 0
-1342 -902 0
-1342 -905 0
908 -1342 0
-1342 -911 0
914 -1342 0
917 -1342 0
-1342 -920 0
-1342 -923 0
926 -1342 0
-1342 -929 0
-1342 -932 0
935 -1342 0
938 -1342 0
-1342 -941 0
944 -1342 0
-1342 -947 0
-1342 -950 0
-1342 -953 0
-1342 -956 0
959 -1342 0
962 -1342 0
-1342 -965 0
-1342 -968 0
971 -1342 0
-1342 -974 0
977 -1342 0
-1342 -980 0
983 -1342 0
986 -1342 0
-1342 -989 0
-1342 -992 0
995 -1342 0
998 -1342 0
-1342 -1001 0
-1342 -1004 0
1007 -1342 0
1010 -1342 0
1013 -1342 0
1016 -1342 0
1019 -1342 0
-1342 -1022 0
-1342 -1025 0
-1342 -1028 0
1031 -1342 0
1034 -1342 0
1037 -1342 0
-1342 -1040 0
1043 -1342 0
-1342 -1046 0
-1342 -1049 0
-1342 -1052 0
1055 -1342 0
-1342 -1058 0
1061 -1342 0
1064 -1342 0
1067 -1342 0
1070 -1342 0
-1342 -1073 0
1076 -1342 0
-1342 -1079 0
-1342 -1082 0
-1342 -1085 0
-1342 -1088 0
1091 -1342 0
-1342 -1094 0
1097 -1342 0
1100 -1342 0
1103 -1342 0
-1342 -1106 0
-1342 -1109 0
-1342 -1112 0
-1342 -1115 0
1118 -1342 0
-1342 -1121 0
-1342 -1124 0
-1342 -1127 0
1130 -1342 0
1133 -1342 0
1136 -1342 0
1139 -1342 0
-1342 -1142 0
1145 -1342 0
1148 -1342 0
-1342 -1151 0
1154 -1342 0
1157 -1342 0
1160 -1342 0
-1342 -1163 0
-1342 -1166 0
1169 -1342 0
-1342 -1172 0
1175 -1342 0
1178 -1342 0
-1342 -1181 0
1184 -1342 0
-1342 -1187 0
-1342 -1190 0
-1342 -1193 0
1196 -1342 0
-1342 -1199 0
1202 -1342 0
1205 -1342 0
1208 -1342 0
-1342 -1211 0
-1342 -1214 0
1217 -1342 0
-1342 -1220 0
-1342 -1223 0
1226 -1342 0
-1342 -1229 0
1232 -1342 0
-1342 -1235 0
-1342 -1238 0
1241 -1342 0
1244 -1342 0
1247 -1342 0
1250 -1342 0
-1342 -1253 0
1256 -1342 0
-1342 -1259 0
1262 -1342 0
1265 -1342 0
-1342 -1268 0
-1342 -1271 0
-1342 -1274 0
-1342 -1277 0
1280 -1342 0
1283 -1342 0
1286 -1342 0
1289 -1342 0
1292 -1342 0
1295 -1342 0
-1342 -1298 0
-1342 -1301 0
1304 -1342 0
-1342 -1307 0
-1342 -1310 0
1313 -1342 0
1316 -1342 0
-1342 -1319 0
1322 -1342 0
1325 -1342 0
-1342 -1328 0
1331 -1342 0
-1342 -1334 0
1337 -1342 0
1340 -1342 0
1341 1342 0
-1343 0
-1344 0
-1345 0
-1346 0
-1347 0
-1348 0
-1349 0
-1350 0
